n = 50;
 
height = [10, 7, 13, 5, 11, 9, 3, 14, 6, 11, 
          5, 16, 3, 13, 1, 15, 3, 13, 4, 13,
   10, 5, 13, 5, 14, 4, 11, 3, 13, 8,
          13, 9, 13, 11, 1, 14, 15, 5, 15, 4,
   4, 13, 4, 14, 10, 15, 3, 14, 3, 13];

cols = 7;
delta = 5;
